20
66
0 1 14 39
0 2 66 49
0 3 6 2
0 4 78 39
0 5 67 19
0 6 75 39
0 7 52 9
0 8 52 19
0 9 97 0
0 10 15 49
0 11 10 9
0 12 30 39
0 13 21 09
0 14 30 3
0 15 95 39
0 16 11 49
0 17 17 39
0 18 25 29
0 19 50 49
1 2 61 19
1 3 26 49
1 4 8 29
1 5 30 39
1 6 78 49
1 7 41 19
1 8 40 19
1 9 3 19
1 10 7 3
1 11 6 3
1 12 93 3
1 13 15 49
1 14 83 49
1 15 45 9
1 16 67 39
1 17 77 39
1 18 20 39
1 19 0 19
2 3 49 39
2 4 7 19
2 5 97 49
2 6 12 19
2 7 92 29
2 8 59 39
2 9 64 39
2 10 14 49
2 11 17 9
2 12 68 49
2 13 69 49
2 14 1 9
2 15 63 39
2 16 44 2
2 17 80 39
2 18 7 39
2 19 99 1
3 4 65 3
3 5 4 1
3 6 38 3
3 7 35 0
3 8 46 2
3 9 99 2
3 10 87 1
3 11 26 1
3 12 71 2
3 13 87 0
3 14 25 1
3 15 74 4
3 16 54 2
3 17 40 3
3 18 80 0
3 19 62 1
4 5 80 29
4 6 33 49
4 7 80 09
4 8 90 0
4 9 13 49
4 10 38 09
4 11 49 09
4 12 55 29
4 13 65 4
4 14 27 9
4 15 42 39
4 16 65 39
4 17 50 3
4 18 34 19
4 19 55 39
5 6 19 19
5 7 64 49
5 8 5 49
5 9 34 49
5 10 66 19
5 11 51 19
5 12 72 9
5 13 91 9
5 14 15 9
5 15 1 39
5 16 56 9
5 17 1 9
5 18 94 2
5 19 42 29
6 7 21 1
6 8 15 39
6 9 54 19
6 10 80 9
6 11 44 29
6 12 18 19
6 13 57 09
6 14 82 9
6 15 93 0
6 16 65 39
6 17 72 39
6 18 19 39
6 19 40 9
7 8 69 0
7 9 40 0
7 10 59 1
7 11 87 3
7 12 84 1
7 13 71 4
7 14 72 4
7 15 89 0
7 16 5 3
7 17 46 1
7 18 40 3
7 19 45 4
8 9 72 1
8 10 19 4
8 11 19 3
8 12 49 0
8 13 91 1
8 14 0 2
8 15 93 2
8 16 11 0
8 17 99 3
8 18 23 0
8 19 6 2
9 10 78 0
9 11 28 1
9 12 66 0
9 13 71 1
9 14 88 2
9 15 10 0
9 16 55 1
9 17 41 3
9 18 73 2
9 19 66 0
10 11 68 0
10 12 89 0
10 13 27 0
10 14 12 2
10 15 30 0
10 16 5 1
10 17 72 1
10 18 80 3
10 19 32 0
11 12 98 1
11 13 54 3
11 14 45 0
11 15 1 2
11 16 34 2
11 17 63 0
11 18 16 1
11 19 18 2
12 13 29 3
12 14 2 1
12 15 18 4
12 16 98 0
12 17 97 3
12 18 8 3
12 19 99 0
13 14 75 0
13 15 14 4
13 16 30 4
13 17 92 0
13 18 5 1
13 19 28 4
14 15 74 2
14 16 71 2
14 17 2 0
14 18 49 0
14 19 47 3
15 16 67 4
15 17 58 2
15 18 10 1
15 19 84 3
16 17 76 3
16 18 80 0
16 19 82 3
17 18 35 1
17 19 12 1
18 19 41 0
